Traveling Salesman Problem/TSP_generados/Aleatorio1620396332_17.tsp
NAME: Aleatorio1620396332_17.tsp
COMMENT: Randomly generated scenario
TYPE: TSP
DIMENSION: 17
EDGE_WEIGHT_TYPE: ATT
NODE_COORD_SECTION
1 26.32 4.16
2 35.63 27.98
3 46.92 14.71
4 46.85 14.58
5 38.33 5.59
6 40.99 17.42
7 20.27 42.03
8 18.73 44.66
9 20.3 46.02
10 44.58 46.75
11 41.45 31.71
12 12.59 37.77
13 34.92 13.85
14 5.18 36.72
15 45.17 37.57
16 44.78 24.62
17 8.91 9.76
