Traveling Salesman Problem/TSP_generados/Aleatorio1620396332_17.opt.tour
NAME: Aleatorio1620396332_17.opt.tour
COMMENT: Optimal solution for Aleatorio1620396332_17 (168.85860355707234)
TYPE: TOUR
DIMENSION: 17
TOUR_SECTION
1 17 14 12 7 8 9 10 15 11 2 16 3 4 6 13 5
-1
EOF
